s td 130 13 170
b 1 3 52 106 121
b 2 6 58 120 126
b 3 1 30 136 157
b 4 2 33 96 165
b 5 28 38 65 85
b 6 39 40 79 144
b 7 42 47 90 127
b 8 43 55 78
b 9 45 50 91
b 10 2 49 122 165
b 11 4 46 51 72
b 12 21 32 54 82
b 13 37 56 57 130
b 14 37 44 60 130
b 15 29 63 89 101
b 16 8 27 67 93
b 17 69 92 116
b 18 48 74 141 160
b 19 20 75 77
b 20 34 76 111 159
b 21 28 78 85 100
b 22 24 83 143 161
b 23 36 84 86 163
b 24 66 88 91 95
b 25 5 41 97 151
b 26 11 98 120
b 27 68 109 135
b 28 14 106 117
b 29 37 119 130
b 30 14 106
b 31 9 14 36 163
b 32 2 15 140 165
b 33 39 123 140
b 34 11 120
b 35 11 23 80 113
b 36 18 19 99 133
b 37 22 23 113 134
b 38 7 39 137 140
b 39 34 70 138 159
b 40 104 145 153
b 41 10 128 149
b 42 59 68 135 150
b 43 62 148 152
b 44 71 89 101 155
b 45 16 92 116 158
b 46 26 62 148 164
b 47 1 136 167
b 48 1 12 136 170
b 49 16 59 92 116
b 50 22 23 70 113
b 51 4 8 27 93
b 52 21 32 82 151
b 53 66 88 95 160
b 54 7 53 73 103
b 55 23 80 111 113
b 56 47 105 108 115
b 57 7 13 107 168
b 58 10 53 94 103 128
b 59 1 9 26 47 57 86 110 112 124 129 136 154 161
b 60 9 26 47 77 86 110 112 124 129 153 154 161 169
b 61 9 26 47 77 86 110 112 124 129 153 161 162 169
b 62 9 26 47 77 86 110 112 129 151 153 161 162 169
b 63 9 26 77 86 110 112 129 147 151 153 161 162 169
b 64 9 26 77 86 110 111 129 147 151 153 161 162 169
b 65 26 77 86 87 110 111 129 147 151 153 161 162 169
b 66 26 70 77 86 87 111 129 147 151 153 161 162 169
b 67 26 61 70 77 87 111 129 147 151 153 161 162 169
b 68 26 59 61 70 77 87 111 147 151 153 161 162 169
b 69 4 59 61 70 77 87 111 147 151 153 161 162 169
b 70 4 59 61 68 70 77 87 111 135 147 151 162 169
b 71 4 34 61 68 70 87 111 135 147 151 169
b 72 34 70 111 135 147 151 159 169
b 73 5 41 135 147 151 159 169
b 74 4 34 46 61 68 72 87
b 75 4 23 59 61 70 87 111 113 147 151 153 162 169
b 76 4 23 59 61 87 92 113 147 151 153 162 169
b 77 4 23 59 61 87 92 116 153 162
b 78 4 8 23 61 87 93 116
b 79 92 116 132 153 162
b 80 21 82 92 113 147 151 169
b 81 9 26 47 77 86 110 112 124 128 129 153 154 161
b 82 7 15 77 79 114 128 153
b 83 7 15 79 107 114 153
b 84 7 13 15 107 114 153
b 85 7 15 77 79 114 140
b 86 7 39 77 79 114 140
b 87 7 15 79 103 114 128
b 88 7 53 79 103 114 128
b 89 53 94 103 114 128
b 90 9 26 36 47 86 110 112 124 128 129 154 161 163
b 91 26 36 47 110 112 124 128 129 148 154 161 163
b 92 24 110 129 143 148 161 163
b 93 26 36 47 62 112 124 128 148 154
b 94 36 47 62 90 112 127 154
b 95 1 12 26 57 136
b 96 1 9 47 57 86 110 112 124 129 136 142 154 161
b 97 1 9 47 57 86 110 112 124 129 136 139 142 161
b 98 1 9 28 47 57 86 110 124 129 136 139 142 161
b 99 1 9 28 44 57 86 110 124 129 136 139 142 161
b 100 9 28 44 57 86 110 129 130 136 139 142 161
b 101 9 28 31 44 57 86 110 129 130 136 139 161
b 102 9 28 31 86 100 110 129 130 136 139 161
b 103 28 31 81 86 100 110 129 130 136 139 161
b 104 28 31 64 81 86 100 129 130 136 139 161
b 105 19 28 31 64 81 86 100 130 136 139 161
b 106 19 28 31 64 71 81 86 100 130 136 139
b 107 19 28 64 65 71 81 86 100 136
b 108 19 28 64 65 81 85 100 136
b 109 18 19 64 81 85 99 136
b 110 19 29 31 64 71 81 100 130 139
b 111 19 29 31 64 71 81 89 130 139
b 112 19 29 31 64 71 81 89 130 146
b 113 19 31 64 81 89 130 146 166
b 114 19 31 64 89 130 146 160 166
b 115 31 64 89 125 130 146 160 166
b 116 48 89 125 130 141 160 166
b 117 31 88 95 125 146 160 166
b 118 29 71 89 101 139
b 119 37 44 57 130 142
b 120 1 44 124 136 157
b 121 1 28 47 105 115 139 142
b 122 8 17 23 61 93
b 123 20 39 77 114 140
b 124 8 25 87 93 116
b 125 31 35 88 95 166
b 126 21 82 102 113 147
b 127 92 104 116 132 153
b 128 13 107 114 118 153
b 129 21 82 92 131 169
b 130 88 95 125 146 156
1 30
2 34
3 120
4 32
5 108
6 86
7 94
8 21
9 24
10 32
11 74
12 52
13 119
14 119
15 118
16 51
17 77
18 116
19 123
20 72
21 108
22 92
23 90
24 53
25 73
26 34
27 70
28 30
29 119
30 31
31 90
32 85
33 86
34 35
35 55
36 109
37 50
38 86
39 72
40 127
41 58
42 70
43 93
44 118
45 49
46 93
47 59
48 95
49 77
50 75
51 78
52 80
53 117
54 88
55 75
56 121
57 84
58 89
59 60
59 95
59 96
60 61
60 81
61 62
62 63
63 64
64 65
65 66
66 67
67 68
68 69
69 70
69 75
70 71
71 72
71 74
72 73
75 76
76 77
76 80
77 78
77 79
78 122
78 124
79 127
80 126
80 129
81 82
81 90
82 83
82 85
82 87
83 84
84 128
85 86
86 123
87 88
88 89
90 91
91 92
91 93
93 94
96 97
97 98
98 99
98 121
99 100
99 120
100 101
100 119
101 102
102 103
103 104
104 105
105 106
106 107
106 110
107 108
108 109
110 111
111 112
111 118
112 113
113 114
114 115
115 116
115 117
117 125
117 130
